p cnf 320 2304
-1 -129 0
-1 -130 0
129 -129 0
130 -130 0
-17 -137 0
-17 -138 0
137 -137 0
138 -138 0
-33 -145 0
-33 -146 0
145 -145 0
146 -146 0
-49 -153 0
-49 -154 0
153 -153 0
154 -154 0
-65 -161 0
-65 -162 0
161 -161 0
162 -162 0
-81 -169 0
-81 -170 0
169 -169 0
170 -170 0
-97 -177 0
-97 -178 0
177 -177 0
178 -178 0
-113 -185 0
-113 -186 0
185 -185 0
186 -186 0
-2 -129 0
-2 -130 0
129 -129 0
130 -130 0
-18 -137 0
-18 -138 0
137 -137 0
138 -138 0
-34 -145 0
-34 -146 0
145 -145 0
146 -146 0
-50 -153 0
-50 -154 0
153 -153 0
154 -154 0
-66 -161 0
-66 -162 0
161 -161 0
162 -162 0
-82 -169 0
-82 -170 0
169 -169 0
170 -170 0
-98 -177 0
-98 -178 0
177 -177 0
178 -178 0
-114 -185 0
-114 -186 0
185 -185 0
186 -186 0
3 -193 -129 0
-3 193 -129 0
3 193 -130 0
-3 -193 -130 0
19 -193 -137 0
-19 193 -137 0
19 193 -138 0
-19 -193 -138 0
35 -193 -145 0
-35 193 -145 0
35 193 -146 0
-35 -193 -146 0
51 -193 -153 0
-51 193 -153 0
51 193 -154 0
-51 -193 -154 0
67 -193 -161 0
-67 193 -161 0
67 193 -162 0
-67 -193 -162 0
83 -193 -169 0
-83 193 -169 0
83 193 -170 0
-83 -193 -170 0
99 -193 -177 0
-99 193 -177 0
99 193 -178 0
-99 -193 -178 0
115 -193 -185 0
-115 193 -185 0
115 193 -186 0
-115 -193 -186 0
4 -129 0
4 -130 0
129 -129 0
130 -130 0
20 -137 0
20 -138 0
137 -137 0
138 -138 0
36 -145 0
36 -146 0
145 -145 0
146 -146 0
52 -153 0
52 -154 0
153 -153 0
154 -154 0
68 -161 0
68 -162 0
161 -161 0
162 -162 0
84 -169 0
84 -170 0
169 -169 0
170 -170 0
100 -177 0
100 -178 0
177 -177 0
178 -178 0
116 -185 0
116 -186 0
185 -185 0
186 -186 0
5 -129 0
5 -130 0
129 -129 0
130 -130 0
21 -137 0
21 -138 0
137 -137 0
138 -138 0
37 -145 0
37 -146 0
145 -145 0
146 -146 0
53 -153 0
53 -154 0
153 -153 0
154 -154 0
69 -161 0
69 -162 0
161 -161 0
162 -162 0
85 -169 0
85 -170 0
169 -169 0
170 -170 0
101 -177 0
101 -178 0
177 -177 0
178 -178 0
117 -185 0
117 -186 0
185 -185 0
186 -186 0
6 -129 0
6 -130 0
129 -129 0
130 -130 0
22 -137 0
22 -138 0
137 -137 0
138 -138 0
38 -145 0
38 -146 0
145 -145 0
146 -146 0
54 -153 0
54 -154 0
153 -153 0
154 -154 0
70 -161 0
70 -162 0
161 -161 0
162 -162 0
86 -169 0
86 -170 0
169 -169 0
170 -170 0
102 -177 0
102 -178 0
177 -177 0
178 -178 0
118 -185 0
118 -186 0
185 -185 0
186 -186 0
7 -129 0
7 -130 0
129 -129 0
130 -130 0
23 -137 0
23 -138 0
137 -137 0
138 -138 0
39 -145 0
39 -146 0
145 -145 0
146 -146 0
55 -153 0
55 -154 0
153 -153 0
154 -154 0
71 -161 0
71 -162 0
161 -161 0
162 -162 0
87 -169 0
87 -170 0
169 -169 0
170 -170 0
103 -177 0
103 -178 0
177 -177 0
178 -178 0
119 -185 0
119 -186 0
185 -185 0
186 -186 0
8 -129 0
8 -130 0
129 -129 0
130 -130 0
24 -137 0
24 -138 0
137 -137 0
138 -138 0
40 -145 0
40 -146 0
145 -145 0
146 -146 0
56 -153 0
56 -154 0
153 -153 0
154 -154 0
72 -161 0
72 -162 0
161 -161 0
162 -162 0
88 -169 0
88 -170 0
169 -169 0
170 -170 0
104 -177 0
104 -178 0
177 -177 0
178 -178 0
120 -185 0
120 -186 0
185 -185 0
186 -186 0
9 -129 0
9 -130 0
129 -129 0
130 -130 0
25 -137 0
25 -138 0
137 -137 0
138 -138 0
41 -145 0
41 -146 0
145 -145 0
146 -146 0
57 -153 0
57 -154 0
153 -153 0
154 -154 0
73 -161 0
73 -162 0
161 -161 0
162 -162 0
89 -169 0
89 -170 0
169 -169 0
170 -170 0
105 -177 0
105 -178 0
177 -177 0
178 -178 0
121 -185 0
121 -186 0
185 -185 0
186 -186 0
10 -129 0
10 -130 0
129 -129 0
130 -130 0
26 -137 0
26 -138 0
137 -137 0
138 -138 0
42 -145 0
42 -146 0
145 -145 0
146 -146 0
58 -153 0
58 -154 0
153 -153 0
154 -154 0
74 -161 0
74 -162 0
161 -161 0
162 -162 0
90 -169 0
90 -170 0
169 -169 0
170 -170 0
106 -177 0
106 -178 0
177 -177 0
178 -178 0
122 -185 0
122 -186 0
185 -185 0
186 -186 0
11 -129 0
11 -130 0
129 -129 0
130 -130 0
27 -137 0
27 -138 0
137 -137 0
138 -138 0
43 -145 0
43 -146 0
145 -145 0
146 -146 0
59 -153 0
59 -154 0
153 -153 0
154 -154 0
75 -161 0
75 -162 0
161 -161 0
162 -162 0
91 -169 0
91 -170 0
169 -169 0
170 -170 0
107 -177 0
107 -178 0
177 -177 0
178 -178 0
123 -185 0
123 -186 0
185 -185 0
186 -186 0
12 -129 0
12 -130 0
129 -129 0
130 -130 0
28 -137 0
28 -138 0
137 -137 0
138 -138 0
44 -145 0
44 -146 0
145 -145 0
146 -146 0
60 -153 0
60 -154 0
153 -153 0
154 -154 0
76 -161 0
76 -162 0
161 -161 0
162 -162 0
92 -169 0
92 -170 0
169 -169 0
170 -170 0
108 -177 0
108 -178 0
177 -177 0
178 -178 0
124 -185 0
124 -186 0
185 -185 0
186 -186 0
-13 -129 0
-13 -130 0
129 -129 0
130 -130 0
-29 -137 0
-29 -138 0
137 -137 0
138 -138 0
-45 -145 0
-45 -146 0
145 -145 0
146 -146 0
-61 -153 0
-61 -154 0
153 -153 0
154 -154 0
-77 -161 0
-77 -162 0
161 -161 0
162 -162 0
-93 -169 0
-93 -170 0
169 -169 0
170 -170 0
-109 -177 0
-109 -178 0
177 -177 0
178 -178 0
-125 -185 0
-125 -186 0
185 -185 0
186 -186 0
-14 -129 0
-14 -130 0
129 -129 0
130 -130 0
-30 -137 0
-30 -138 0
137 -137 0
138 -138 0
-46 -145 0
-46 -146 0
145 -145 0
146 -146 0
-62 -153 0
-62 -154 0
153 -153 0
154 -154 0
-78 -161 0
-78 -162 0
161 -161 0
162 -162 0
-94 -169 0
-94 -170 0
169 -169 0
170 -170 0
-110 -177 0
-110 -178 0
177 -177 0
178 -178 0
-126 -185 0
-126 -186 0
185 -185 0
186 -186 0
15 -129 0
15 -130 0
129 -129 0
130 -130 0
31 -137 0
31 -138 0
137 -137 0
138 -138 0
47 -145 0
47 -146 0
145 -145 0
146 -146 0
63 -153 0
63 -154 0
153 -153 0
154 -154 0
79 -161 0
79 -162 0
161 -161 0
162 -162 0
95 -169 0
95 -170 0
169 -169 0
170 -170 0
111 -177 0
111 -178 0
177 -177 0
178 -178 0
127 -185 0
127 -186 0
185 -185 0
186 -186 0
-16 -129 0
-16 -130 0
129 -129 0
130 -130 0
-32 -137 0
-32 -138 0
137 -137 0
138 -138 0
-48 -145 0
-48 -146 0
145 -145 0
146 -146 0
-64 -153 0
-64 -154 0
153 -153 0
154 -154 0
-80 -161 0
-80 -162 0
161 -161 0
162 -162 0
-96 -169 0
-96 -170 0
169 -169 0
170 -170 0
-112 -177 0
-112 -178 0
177 -177 0
178 -178 0
-128 -185 0
-128 -186 0
185 -185 0
186 -186 0
-257 129 0
257 -129 0
-258 130 0
257 -130 0
-257 -129 0
-258 -130 0
-265 129 257 0
265 -129 0
265 -257 0
-266 130 258 0
266 -130 0
266 -258 0
-265 -137 0
-266 -138 0
-273 137 265 0
273 -137 0
273 -265 0
-274 138 266 0
274 -138 0
274 -266 0
-273 -145 0
-274 -146 0
-281 145 273 0
281 -145 0
281 -273 0
-282 146 274 0
282 -146 0
282 -274 0
-281 -153 0
-282 -154 0
-289 153 281 0
289 -153 0
289 -281 0
-290 154 282 0
290 -154 0
290 -282 0
-289 -161 0
-290 -162 0
-297 161 289 0
297 -161 0
297 -289 0
-298 162 290 0
298 -162 0
298 -290 0
-297 -169 0
-298 -170 0
-305 169 297 0
305 -169 0
305 -297 0
-306 170 298 0
306 -170 0
306 -298 0
-305 -177 0
-306 -178 0
-313 177 305 0
313 -177 0
313 -305 0
-314 178 306 0
314 -178 0
314 -306 0
-313 -185 0
-314 -186 0
313 0
314 0
-1 -131 0
-1 -132 0
131 -131 0
132 -132 0
-17 -139 0
-17 -140 0
139 -139 0
140 -140 0
-33 -147 0
-33 -148 0
147 -147 0
148 -148 0
-49 -155 0
-49 -156 0
155 -155 0
156 -156 0
-65 -163 0
-65 -164 0
163 -163 0
164 -164 0
-81 -171 0
-81 -172 0
171 -171 0
172 -172 0
-97 -179 0
-97 -180 0
179 -179 0
180 -180 0
-113 -187 0
-113 -188 0
187 -187 0
188 -188 0
-2 -131 0
-2 -132 0
131 -131 0
132 -132 0
-18 -139 0
-18 -140 0
139 -139 0
140 -140 0
-34 -147 0
-34 -148 0
147 -147 0
148 -148 0
-50 -155 0
-50 -156 0
155 -155 0
156 -156 0
-66 -163 0
-66 -164 0
163 -163 0
164 -164 0
-82 -171 0
-82 -172 0
171 -171 0
172 -172 0
-98 -179 0
-98 -180 0
179 -179 0
180 -180 0
-114 -187 0
-114 -188 0
187 -187 0
188 -188 0
3 -194 -131 0
-3 194 -131 0
3 194 -132 0
-3 -194 -132 0
19 -194 -139 0
-19 194 -139 0
19 194 -140 0
-19 -194 -140 0
35 -194 -147 0
-35 194 -147 0
35 194 -148 0
-35 -194 -148 0
51 -194 -155 0
-51 194 -155 0
51 194 -156 0
-51 -194 -156 0
67 -194 -163 0
-67 194 -163 0
67 194 -164 0
-67 -194 -164 0
83 -194 -171 0
-83 194 -171 0
83 194 -172 0
-83 -194 -172 0
99 -194 -179 0
-99 194 -179 0
99 194 -180 0
-99 -194 -180 0
115 -194 -187 0
-115 194 -187 0
115 194 -188 0
-115 -194 -188 0
4 -131 0
4 -132 0
131 -131 0
132 -132 0
20 -139 0
20 -140 0
139 -139 0
140 -140 0
36 -147 0
36 -148 0
147 -147 0
148 -148 0
52 -155 0
52 -156 0
155 -155 0
156 -156 0
68 -163 0
68 -164 0
163 -163 0
164 -164 0
84 -171 0
84 -172 0
171 -171 0
172 -172 0
100 -179 0
100 -180 0
179 -179 0
180 -180 0
116 -187 0
116 -188 0
187 -187 0
188 -188 0
5 -131 0
5 -132 0
131 -131 0
132 -132 0
21 -139 0
21 -140 0
139 -139 0
140 -140 0
37 -147 0
37 -148 0
147 -147 0
148 -148 0
53 -155 0
53 -156 0
155 -155 0
156 -156 0
69 -163 0
69 -164 0
163 -163 0
164 -164 0
85 -171 0
85 -172 0
171 -171 0
172 -172 0
101 -179 0
101 -180 0
179 -179 0
180 -180 0
117 -187 0
117 -188 0
187 -187 0
188 -188 0
6 -195 -131 0
-6 195 -131 0
6 195 -132 0
-6 -195 -132 0
22 -195 -139 0
-22 195 -139 0
22 195 -140 0
-22 -195 -140 0
38 -195 -147 0
-38 195 -147 0
38 195 -148 0
-38 -195 -148 0
54 -195 -155 0
-54 195 -155 0
54 195 -156 0
-54 -195 -156 0
70 -195 -163 0
-70 195 -163 0
70 195 -164 0
-70 -195 -164 0
86 -195 -171 0
-86 195 -171 0
86 195 -172 0
-86 -195 -172 0
102 -195 -179 0
-102 195 -179 0
102 195 -180 0
-102 -195 -180 0
118 -195 -187 0
-118 195 -187 0
118 195 -188 0
-118 -195 -188 0
7 -131 0
7 -132 0
131 -131 0
132 -132 0
23 -139 0
23 -140 0
139 -139 0
140 -140 0
39 -147 0
39 -148 0
147 -147 0
148 -148 0
55 -155 0
55 -156 0
155 -155 0
156 -156 0
71 -163 0
71 -164 0
163 -163 0
164 -164 0
87 -171 0
87 -172 0
171 -171 0
172 -172 0
103 -179 0
103 -180 0
179 -179 0
180 -180 0
119 -187 0
119 -188 0
187 -187 0
188 -188 0
8 -131 0
8 -132 0
131 -131 0
132 -132 0
24 -139 0
24 -140 0
139 -139 0
140 -140 0
40 -147 0
40 -148 0
147 -147 0
148 -148 0
56 -155 0
56 -156 0
155 -155 0
156 -156 0
72 -163 0
72 -164 0
163 -163 0
164 -164 0
88 -171 0
88 -172 0
171 -171 0
172 -172 0
104 -179 0
104 -180 0
179 -179 0
180 -180 0
120 -187 0
120 -188 0
187 -187 0
188 -188 0
9 -196 -131 0
-9 196 -131 0
9 196 -132 0
-9 -196 -132 0
25 -196 -139 0
-25 196 -139 0
25 196 -140 0
-25 -196 -140 0
41 -196 -147 0
-41 196 -147 0
41 196 -148 0
-41 -196 -148 0
57 -196 -155 0
-57 196 -155 0
57 196 -156 0
-57 -196 -156 0
73 -196 -163 0
-73 196 -163 0
73 196 -164 0
-73 -196 -164 0
89 -196 -171 0
-89 196 -171 0
89 196 -172 0
-89 -196 -172 0
105 -196 -179 0
-105 196 -179 0
105 196 -180 0
-105 -196 -180 0
121 -196 -187 0
-121 196 -187 0
121 196 -188 0
-121 -196 -188 0
10 -131 0
10 -132 0
131 -131 0
132 -132 0
26 -139 0
26 -140 0
139 -139 0
140 -140 0
42 -147 0
42 -148 0
147 -147 0
148 -148 0
58 -155 0
58 -156 0
155 -155 0
156 -156 0
74 -163 0
74 -164 0
163 -163 0
164 -164 0
90 -171 0
90 -172 0
171 -171 0
172 -172 0
106 -179 0
106 -180 0
179 -179 0
180 -180 0
122 -187 0
122 -188 0
187 -187 0
188 -188 0
11 -131 0
11 -132 0
131 -131 0
132 -132 0
27 -139 0
27 -140 0
139 -139 0
140 -140 0
43 -147 0
43 -148 0
147 -147 0
148 -148 0
59 -155 0
59 -156 0
155 -155 0
156 -156 0
75 -163 0
75 -164 0
163 -163 0
164 -164 0
91 -171 0
91 -172 0
171 -171 0
172 -172 0
107 -179 0
107 -180 0
179 -179 0
180 -180 0
123 -187 0
123 -188 0
187 -187 0
188 -188 0
12 -131 0
12 -132 0
131 -131 0
132 -132 0
28 -139 0
28 -140 0
139 -139 0
140 -140 0
44 -147 0
44 -148 0
147 -147 0
148 -148 0
60 -155 0
60 -156 0
155 -155 0
156 -156 0
76 -163 0
76 -164 0
163 -163 0
164 -164 0
92 -171 0
92 -172 0
171 -171 0
172 -172 0
108 -179 0
108 -180 0
179 -179 0
180 -180 0
124 -187 0
124 -188 0
187 -187 0
188 -188 0
13 -197 -131 0
-13 197 -131 0
13 197 -132 0
-13 -197 -132 0
29 -197 -139 0
-29 197 -139 0
29 197 -140 0
-29 -197 -140 0
45 -197 -147 0
-45 197 -147 0
45 197 -148 0
-45 -197 -148 0
61 -197 -155 0
-61 197 -155 0
61 197 -156 0
-61 -197 -156 0
77 -197 -163 0
-77 197 -163 0
77 197 -164 0
-77 -197 -164 0
93 -197 -171 0
-93 197 -171 0
93 197 -172 0
-93 -197 -172 0
109 -197 -179 0
-109 197 -179 0
109 197 -180 0
-109 -197 -180 0
125 -197 -187 0
-125 197 -187 0
125 197 -188 0
-125 -197 -188 0
14 -198 -131 0
-14 198 -131 0
14 198 -132 0
-14 -198 -132 0
30 -198 -139 0
-30 198 -139 0
30 198 -140 0
-30 -198 -140 0
46 -198 -147 0
-46 198 -147 0
46 198 -148 0
-46 -198 -148 0
62 -198 -155 0
-62 198 -155 0
62 198 -156 0
-62 -198 -156 0
78 -198 -163 0
-78 198 -163 0
78 198 -164 0
-78 -198 -164 0
94 -198 -171 0
-94 198 -171 0
94 198 -172 0
-94 -198 -172 0
110 -198 -179 0
-110 198 -179 0
110 198 -180 0
-110 -198 -180 0
126 -198 -187 0
-126 198 -187 0
126 198 -188 0
-126 -198 -188 0
15 -131 0
15 -132 0
131 -131 0
132 -132 0
31 -139 0
31 -140 0
139 -139 0
140 -140 0
47 -147 0
47 -148 0
147 -147 0
148 -148 0
63 -155 0
63 -156 0
155 -155 0
156 -156 0
79 -163 0
79 -164 0
163 -163 0
164 -164 0
95 -171 0
95 -172 0
171 -171 0
172 -172 0
111 -179 0
111 -180 0
179 -179 0
180 -180 0
127 -187 0
127 -188 0
187 -187 0
188 -188 0
16 -199 -131 0
-16 199 -131 0
16 199 -132 0
-16 -199 -132 0
32 -199 -139 0
-32 199 -139 0
32 199 -140 0
-32 -199 -140 0
48 -199 -147 0
-48 199 -147 0
48 199 -148 0
-48 -199 -148 0
64 -199 -155 0
-64 199 -155 0
64 199 -156 0
-64 -199 -156 0
80 -199 -163 0
-80 199 -163 0
80 199 -164 0
-80 -199 -164 0
96 -199 -171 0
-96 199 -171 0
96 199 -172 0
-96 -199 -172 0
112 -199 -179 0
-112 199 -179 0
112 199 -180 0
-112 -199 -180 0
128 -199 -187 0
-128 199 -187 0
128 199 -188 0
-128 -199 -188 0
-259 131 0
259 -131 0
-260 132 0
259 -132 0
-259 -131 0
-260 -132 0
-267 131 259 0
267 -131 0
267 -259 0
-268 132 260 0
268 -132 0
268 -260 0
-267 -139 0
-268 -140 0
-275 139 267 0
275 -139 0
275 -267 0
-276 140 268 0
276 -140 0
276 -268 0
-275 -147 0
-276 -148 0
-283 147 275 0
283 -147 0
283 -275 0
-284 148 276 0
284 -148 0
284 -276 0
-283 -155 0
-284 -156 0
-291 155 283 0
291 -155 0
291 -283 0
-292 156 284 0
292 -156 0
292 -284 0
-291 -163 0
-292 -164 0
-299 163 291 0
299 -163 0
299 -291 0
-300 164 292 0
300 -164 0
300 -292 0
-299 -171 0
-300 -172 0
-307 171 299 0
307 -171 0
307 -299 0
-308 172 300 0
308 -172 0
308 -300 0
-307 -179 0
-308 -180 0
-315 179 307 0
315 -179 0
315 -307 0
-316 180 308 0
316 -180 0
316 -308 0
-315 -187 0
-316 -188 0
315 0
316 0
1 -200 -133 0
-1 200 -133 0
1 200 -134 0
-1 -200 -134 0
17 -200 -141 0
-17 200 -141 0
17 200 -142 0
-17 -200 -142 0
33 -200 -149 0
-33 200 -149 0
33 200 -150 0
-33 -200 -150 0
49 -200 -157 0
-49 200 -157 0
49 200 -158 0
-49 -200 -158 0
65 -200 -165 0
-65 200 -165 0
65 200 -166 0
-65 -200 -166 0
81 -200 -173 0
-81 200 -173 0
81 200 -174 0
-81 -200 -174 0
97 -200 -181 0
-97 200 -181 0
97 200 -182 0
-97 -200 -182 0
113 -200 -189 0
-113 200 -189 0
113 200 -190 0
-113 -200 -190 0
2 -201 -133 0
-2 201 -133 0
2 201 -134 0
-2 -201 -134 0
18 -201 -141 0
-18 201 -141 0
18 201 -142 0
-18 -201 -142 0
34 -201 -149 0
-34 201 -149 0
34 201 -150 0
-34 -201 -150 0
50 -201 -157 0
-50 201 -157 0
50 201 -158 0
-50 -201 -158 0
66 -201 -165 0
-66 201 -165 0
66 201 -166 0
-66 -201 -166 0
82 -201 -173 0
-82 201 -173 0
82 201 -174 0
-82 -201 -174 0
98 -201 -181 0
-98 201 -181 0
98 201 -182 0
-98 -201 -182 0
114 -201 -189 0
-114 201 -189 0
114 201 -190 0
-114 -201 -190 0
-3 -133 0
-3 -134 0
133 -133 0
134 -134 0
-19 -141 0
-19 -142 0
141 -141 0
142 -142 0
-35 -149 0
-35 -150 0
149 -149 0
150 -150 0
-51 -157 0
-51 -158 0
157 -157 0
158 -158 0
-67 -165 0
-67 -166 0
165 -165 0
166 -166 0
-83 -173 0
-83 -174 0
173 -173 0
174 -174 0
-99 -181 0
-99 -182 0
181 -181 0
182 -182 0
-115 -189 0
-115 -190 0
189 -189 0
190 -190 0
4 -202 -133 0
-4 202 -133 0
4 202 -134 0
-4 -202 -134 0
20 -202 -141 0
-20 202 -141 0
20 202 -142 0
-20 -202 -142 0
36 -202 -149 0
-36 202 -149 0
36 202 -150 0
-36 -202 -150 0
52 -202 -157 0
-52 202 -157 0
52 202 -158 0
-52 -202 -158 0
68 -202 -165 0
-68 202 -165 0
68 202 -166 0
-68 -202 -166 0
84 -202 -173 0
-84 202 -173 0
84 202 -174 0
-84 -202 -174 0
100 -202 -181 0
-100 202 -181 0
100 202 -182 0
-100 -202 -182 0
116 -202 -189 0
-116 202 -189 0
116 202 -190 0
-116 -202 -190 0
5 -133 0
5 -134 0
133 -133 0
134 -134 0
21 -141 0
21 -142 0
141 -141 0
142 -142 0
37 -149 0
37 -150 0
149 -149 0
150 -150 0
53 -157 0
53 -158 0
157 -157 0
158 -158 0
69 -165 0
69 -166 0
165 -165 0
166 -166 0
85 -173 0
85 -174 0
173 -173 0
174 -174 0
101 -181 0
101 -182 0
181 -181 0
182 -182 0
117 -189 0
117 -190 0
189 -189 0
190 -190 0
6 -133 0
6 -134 0
133 -133 0
134 -134 0
22 -141 0
22 -142 0
141 -141 0
142 -142 0
38 -149 0
38 -150 0
149 -149 0
150 -150 0
54 -157 0
54 -158 0
157 -157 0
158 -158 0
70 -165 0
70 -166 0
165 -165 0
166 -166 0
86 -173 0
86 -174 0
173 -173 0
174 -174 0
102 -181 0
102 -182 0
181 -181 0
182 -182 0
118 -189 0
118 -190 0
189 -189 0
190 -190 0
7 -133 0
7 -134 0
133 -133 0
134 -134 0
23 -141 0
23 -142 0
141 -141 0
142 -142 0
39 -149 0
39 -150 0
149 -149 0
150 -150 0
55 -157 0
55 -158 0
157 -157 0
158 -158 0
71 -165 0
71 -166 0
165 -165 0
166 -166 0
87 -173 0
87 -174 0
173 -173 0
174 -174 0
103 -181 0
103 -182 0
181 -181 0
182 -182 0
119 -189 0
119 -190 0
189 -189 0
190 -190 0
8 -133 0
8 -134 0
133 -133 0
134 -134 0
24 -141 0
24 -142 0
141 -141 0
142 -142 0
40 -149 0
40 -150 0
149 -149 0
150 -150 0
56 -157 0
56 -158 0
157 -157 0
158 -158 0
72 -165 0
72 -166 0
165 -165 0
166 -166 0
88 -173 0
88 -174 0
173 -173 0
174 -174 0
104 -181 0
104 -182 0
181 -181 0
182 -182 0
120 -189 0
120 -190 0
189 -189 0
190 -190 0
9 -133 0
9 -134 0
133 -133 0
134 -134 0
25 -141 0
25 -142 0
141 -141 0
142 -142 0
41 -149 0
41 -150 0
149 -149 0
150 -150 0
57 -157 0
57 -158 0
157 -157 0
158 -158 0
73 -165 0
73 -166 0
165 -165 0
166 -166 0
89 -173 0
89 -174 0
173 -173 0
174 -174 0
105 -181 0
105 -182 0
181 -181 0
182 -182 0
121 -189 0
121 -190 0
189 -189 0
190 -190 0
10 -133 0
10 -134 0
133 -133 0
134 -134 0
26 -141 0
26 -142 0
141 -141 0
142 -142 0
42 -149 0
42 -150 0
149 -149 0
150 -150 0
58 -157 0
58 -158 0
157 -157 0
158 -158 0
74 -165 0
74 -166 0
165 -165 0
166 -166 0
90 -173 0
90 -174 0
173 -173 0
174 -174 0
106 -181 0
106 -182 0
181 -181 0
182 -182 0
122 -189 0
122 -190 0
189 -189 0
190 -190 0
11 -133 0
11 -134 0
133 -133 0
134 -134 0
27 -141 0
27 -142 0
141 -141 0
142 -142 0
43 -149 0
43 -150 0
149 -149 0
150 -150 0
59 -157 0
59 -158 0
157 -157 0
158 -158 0
75 -165 0
75 -166 0
165 -165 0
166 -166 0
91 -173 0
91 -174 0
173 -173 0
174 -174 0
107 -181 0
107 -182 0
181 -181 0
182 -182 0
123 -189 0
123 -190 0
189 -189 0
190 -190 0
12 -133 0
12 -134 0
133 -133 0
134 -134 0
28 -141 0
28 -142 0
141 -141 0
142 -142 0
44 -149 0
44 -150 0
149 -149 0
150 -150 0
60 -157 0
60 -158 0
157 -157 0
158 -158 0
76 -165 0
76 -166 0
165 -165 0
166 -166 0
92 -173 0
92 -174 0
173 -173 0
174 -174 0
108 -181 0
108 -182 0
181 -181 0
182 -182 0
124 -189 0
124 -190 0
189 -189 0
190 -190 0
13 -203 -133 0
-13 203 -133 0
13 203 -134 0
-13 -203 -134 0
29 -203 -141 0
-29 203 -141 0
29 203 -142 0
-29 -203 -142 0
45 -203 -149 0
-45 203 -149 0
45 203 -150 0
-45 -203 -150 0
61 -203 -157 0
-61 203 -157 0
61 203 -158 0
-61 -203 -158 0
77 -203 -165 0
-77 203 -165 0
77 203 -166 0
-77 -203 -166 0
93 -203 -173 0
-93 203 -173 0
93 203 -174 0
-93 -203 -174 0
109 -203 -181 0
-109 203 -181 0
109 203 -182 0
-109 -203 -182 0
125 -203 -189 0
-125 203 -189 0
125 203 -190 0
-125 -203 -190 0
14 -204 -133 0
-14 204 -133 0
14 204 -134 0
-14 -204 -134 0
30 -204 -141 0
-30 204 -141 0
30 204 -142 0
-30 -204 -142 0
46 -204 -149 0
-46 204 -149 0
46 204 -150 0
-46 -204 -150 0
62 -204 -157 0
-62 204 -157 0
62 204 -158 0
-62 -204 -158 0
78 -204 -165 0
-78 204 -165 0
78 204 -166 0
-78 -204 -166 0
94 -204 -173 0
-94 204 -173 0
94 204 -174 0
-94 -204 -174 0
110 -204 -181 0
-110 204 -181 0
110 204 -182 0
-110 -204 -182 0
126 -204 -189 0
-126 204 -189 0
126 204 -190 0
-126 -204 -190 0
15 -205 -133 0
-15 205 -133 0
15 205 -134 0
-15 -205 -134 0
31 -205 -141 0
-31 205 -141 0
31 205 -142 0
-31 -205 -142 0
47 -205 -149 0
-47 205 -149 0
47 205 -150 0
-47 -205 -150 0
63 -205 -157 0
-63 205 -157 0
63 205 -158 0
-63 -205 -158 0
79 -205 -165 0
-79 205 -165 0
79 205 -166 0
-79 -205 -166 0
95 -205 -173 0
-95 205 -173 0
95 205 -174 0
-95 -205 -174 0
111 -205 -181 0
-111 205 -181 0
111 205 -182 0
-111 -205 -182 0
127 -205 -189 0
-127 205 -189 0
127 205 -190 0
-127 -205 -190 0
16 -206 -133 0
-16 206 -133 0
16 206 -134 0
-16 -206 -134 0
32 -206 -141 0
-32 206 -141 0
32 206 -142 0
-32 -206 -142 0
48 -206 -149 0
-48 206 -149 0
48 206 -150 0
-48 -206 -150 0
64 -206 -157 0
-64 206 -157 0
64 206 -158 0
-64 -206 -158 0
80 -206 -165 0
-80 206 -165 0
80 206 -166 0
-80 -206 -166 0
96 -206 -173 0
-96 206 -173 0
96 206 -174 0
-96 -206 -174 0
112 -206 -181 0
-112 206 -181 0
112 206 -182 0
-112 -206 -182 0
128 -206 -189 0
-128 206 -189 0
128 206 -190 0
-128 -206 -190 0
-261 133 0
261 -133 0
-262 134 0
261 -134 0
-261 -133 0
-262 -134 0
-269 133 261 0
269 -133 0
269 -261 0
-270 134 262 0
270 -134 0
270 -262 0
-269 -141 0
-270 -142 0
-277 141 269 0
277 -141 0
277 -269 0
-278 142 270 0
278 -142 0
278 -270 0
-277 -149 0
-278 -150 0
-285 149 277 0
285 -149 0
285 -277 0
-286 150 278 0
286 -150 0
286 -278 0
-285 -157 0
-286 -158 0
-293 157 285 0
293 -157 0
293 -285 0
-294 158 286 0
294 -158 0
294 -286 0
-293 -165 0
-294 -166 0
-301 165 293 0
301 -165 0
301 -293 0
-302 166 294 0
302 -166 0
302 -294 0
-301 -173 0
-302 -174 0
-309 173 301 0
309 -173 0
309 -301 0
-310 174 302 0
310 -174 0
310 -302 0
-309 -181 0
-310 -182 0
-317 181 309 0
317 -181 0
317 -309 0
-318 182 310 0
318 -182 0
318 -310 0
-317 -189 0
-318 -190 0
317 0
318 0
-1 -135 0
-1 -136 0
135 -135 0
136 -136 0
-17 -143 0
-17 -144 0
143 -143 0
144 -144 0
-33 -151 0
-33 -152 0
151 -151 0
152 -152 0
-49 -159 0
-49 -160 0
159 -159 0
160 -160 0
-65 -167 0
-65 -168 0
167 -167 0
168 -168 0
-81 -175 0
-81 -176 0
175 -175 0
176 -176 0
-97 -183 0
-97 -184 0
183 -183 0
184 -184 0
-113 -191 0
-113 -192 0
191 -191 0
192 -192 0
-2 -135 0
-2 -136 0
135 -135 0
136 -136 0
-18 -143 0
-18 -144 0
143 -143 0
144 -144 0
-34 -151 0
-34 -152 0
151 -151 0
152 -152 0
-50 -159 0
-50 -160 0
159 -159 0
160 -160 0
-66 -167 0
-66 -168 0
167 -167 0
168 -168 0
-82 -175 0
-82 -176 0
175 -175 0
176 -176 0
-98 -183 0
-98 -184 0
183 -183 0
184 -184 0
-114 -191 0
-114 -192 0
191 -191 0
192 -192 0
-3 -135 0
-3 -136 0
135 -135 0
136 -136 0
-19 -143 0
-19 -144 0
143 -143 0
144 -144 0
-35 -151 0
-35 -152 0
151 -151 0
152 -152 0
-51 -159 0
-51 -160 0
159 -159 0
160 -160 0
-67 -167 0
-67 -168 0
167 -167 0
168 -168 0
-83 -175 0
-83 -176 0
175 -175 0
176 -176 0
-99 -183 0
-99 -184 0
183 -183 0
184 -184 0
-115 -191 0
-115 -192 0
191 -191 0
192 -192 0
4 -135 0
4 -136 0
135 -135 0
136 -136 0
20 -143 0
20 -144 0
143 -143 0
144 -144 0
36 -151 0
36 -152 0
151 -151 0
152 -152 0
52 -159 0
52 -160 0
159 -159 0
160 -160 0
68 -167 0
68 -168 0
167 -167 0
168 -168 0
84 -175 0
84 -176 0
175 -175 0
176 -176 0
100 -183 0
100 -184 0
183 -183 0
184 -184 0
116 -191 0
116 -192 0
191 -191 0
192 -192 0
5 -135 0
5 -136 0
135 -135 0
136 -136 0
21 -143 0
21 -144 0
143 -143 0
144 -144 0
37 -151 0
37 -152 0
151 -151 0
152 -152 0
53 -159 0
53 -160 0
159 -159 0
160 -160 0
69 -167 0
69 -168 0
167 -167 0
168 -168 0
85 -175 0
85 -176 0
175 -175 0
176 -176 0
101 -183 0
101 -184 0
183 -183 0
184 -184 0
117 -191 0
117 -192 0
191 -191 0
192 -192 0
6 -135 0
6 -136 0
135 -135 0
136 -136 0
22 -143 0
22 -144 0
143 -143 0
144 -144 0
38 -151 0
38 -152 0
151 -151 0
152 -152 0
54 -159 0
54 -160 0
159 -159 0
160 -160 0
70 -167 0
70 -168 0
167 -167 0
168 -168 0
86 -175 0
86 -176 0
175 -175 0
176 -176 0
102 -183 0
102 -184 0
183 -183 0
184 -184 0
118 -191 0
118 -192 0
191 -191 0
192 -192 0
7 -135 0
7 -136 0
135 -135 0
136 -136 0
23 -143 0
23 -144 0
143 -143 0
144 -144 0
39 -151 0
39 -152 0
151 -151 0
152 -152 0
55 -159 0
55 -160 0
159 -159 0
160 -160 0
71 -167 0
71 -168 0
167 -167 0
168 -168 0
87 -175 0
87 -176 0
175 -175 0
176 -176 0
103 -183 0
103 -184 0
183 -183 0
184 -184 0
119 -191 0
119 -192 0
191 -191 0
192 -192 0
8 -135 0
8 -136 0
135 -135 0
136 -136 0
24 -143 0
24 -144 0
143 -143 0
144 -144 0
40 -151 0
40 -152 0
151 -151 0
152 -152 0
56 -159 0
56 -160 0
159 -159 0
160 -160 0
72 -167 0
72 -168 0
167 -167 0
168 -168 0
88 -175 0
88 -176 0
175 -175 0
176 -176 0
104 -183 0
104 -184 0
183 -183 0
184 -184 0
120 -191 0
120 -192 0
191 -191 0
192 -192 0
9 -207 -135 0
-9 207 -135 0
9 207 -136 0
-9 -207 -136 0
25 -207 -143 0
-25 207 -143 0
25 207 -144 0
-25 -207 -144 0
41 -207 -151 0
-41 207 -151 0
41 207 -152 0
-41 -207 -152 0
57 -207 -159 0
-57 207 -159 0
57 207 -160 0
-57 -207 -160 0
73 -207 -167 0
-73 207 -167 0
73 207 -168 0
-73 -207 -168 0
89 -207 -175 0
-89 207 -175 0
89 207 -176 0
-89 -207 -176 0
105 -207 -183 0
-105 207 -183 0
105 207 -184 0
-105 -207 -184 0
121 -207 -191 0
-121 207 -191 0
121 207 -192 0
-121 -207 -192 0
10 -135 0
10 -136 0
135 -135 0
136 -136 0
26 -143 0
26 -144 0
143 -143 0
144 -144 0
42 -151 0
42 -152 0
151 -151 0
152 -152 0
58 -159 0
58 -160 0
159 -159 0
160 -160 0
74 -167 0
74 -168 0
167 -167 0
168 -168 0
90 -175 0
90 -176 0
175 -175 0
176 -176 0
106 -183 0
106 -184 0
183 -183 0
184 -184 0
122 -191 0
122 -192 0
191 -191 0
192 -192 0
11 -135 0
11 -136 0
135 -135 0
136 -136 0
27 -143 0
27 -144 0
143 -143 0
144 -144 0
43 -151 0
43 -152 0
151 -151 0
152 -152 0
59 -159 0
59 -160 0
159 -159 0
160 -160 0
75 -167 0
75 -168 0
167 -167 0
168 -168 0
91 -175 0
91 -176 0
175 -175 0
176 -176 0
107 -183 0
107 -184 0
183 -183 0
184 -184 0
123 -191 0
123 -192 0
191 -191 0
192 -192 0
12 -135 0
12 -136 0
135 -135 0
136 -136 0
28 -143 0
28 -144 0
143 -143 0
144 -144 0
44 -151 0
44 -152 0
151 -151 0
152 -152 0
60 -159 0
60 -160 0
159 -159 0
160 -160 0
76 -167 0
76 -168 0
167 -167 0
168 -168 0
92 -175 0
92 -176 0
175 -175 0
176 -176 0
108 -183 0
108 -184 0
183 -183 0
184 -184 0
124 -191 0
124 -192 0
191 -191 0
192 -192 0
13 -208 -135 0
-13 208 -135 0
13 208 -136 0
-13 -208 -136 0
29 -208 -143 0
-29 208 -143 0
29 208 -144 0
-29 -208 -144 0
45 -208 -151 0
-45 208 -151 0
45 208 -152 0
-45 -208 -152 0
61 -208 -159 0
-61 208 -159 0
61 208 -160 0
-61 -208 -160 0
77 -208 -167 0
-77 208 -167 0
77 208 -168 0
-77 -208 -168 0
93 -208 -175 0
-93 208 -175 0
93 208 -176 0
-93 -208 -176 0
109 -208 -183 0
-109 208 -183 0
109 208 -184 0
-109 -208 -184 0
125 -208 -191 0
-125 208 -191 0
125 208 -192 0
-125 -208 -192 0
14 -209 -135 0
-14 209 -135 0
14 209 -136 0
-14 -209 -136 0
30 -209 -143 0
-30 209 -143 0
30 209 -144 0
-30 -209 -144 0
46 -209 -151 0
-46 209 -151 0
46 209 -152 0
-46 -209 -152 0
62 -209 -159 0
-62 209 -159 0
62 209 -160 0
-62 -209 -160 0
78 -209 -167 0
-78 209 -167 0
78 209 -168 0
-78 -209 -168 0
94 -209 -175 0
-94 209 -175 0
94 209 -176 0
-94 -209 -176 0
110 -209 -183 0
-110 209 -183 0
110 209 -184 0
-110 -209 -184 0
126 -209 -191 0
-126 209 -191 0
126 209 -192 0
-126 -209 -192 0
15 -210 -135 0
-15 210 -135 0
15 210 -136 0
-15 -210 -136 0
31 -210 -143 0
-31 210 -143 0
31 210 -144 0
-31 -210 -144 0
47 -210 -151 0
-47 210 -151 0
47 210 -152 0
-47 -210 -152 0
63 -210 -159 0
-63 210 -159 0
63 210 -160 0
-63 -210 -160 0
79 -210 -167 0
-79 210 -167 0
79 210 -168 0
-79 -210 -168 0
95 -210 -175 0
-95 210 -175 0
95 210 -176 0
-95 -210 -176 0
111 -210 -183 0
-111 210 -183 0
111 210 -184 0
-111 -210 -184 0
127 -210 -191 0
-127 210 -191 0
127 210 -192 0
-127 -210 -192 0
16 -211 -135 0
-16 211 -135 0
16 211 -136 0
-16 -211 -136 0
32 -211 -143 0
-32 211 -143 0
32 211 -144 0
-32 -211 -144 0
48 -211 -151 0
-48 211 -151 0
48 211 -152 0
-48 -211 -152 0
64 -211 -159 0
-64 211 -159 0
64 211 -160 0
-64 -211 -160 0
80 -211 -167 0
-80 211 -167 0
80 211 -168 0
-80 -211 -168 0
96 -211 -175 0
-96 211 -175 0
96 211 -176 0
-96 -211 -176 0
112 -211 -183 0
-112 211 -183 0
112 211 -184 0
-112 -211 -184 0
128 -211 -191 0
-128 211 -191 0
128 211 -192 0
-128 -211 -192 0
-263 135 0
263 -135 0
-264 136 0
263 -136 0
-263 -135 0
-264 -136 0
-271 135 263 0
271 -135 0
271 -263 0
-272 136 264 0
272 -136 0
272 -264 0
-271 -143 0
-272 -144 0
-279 143 271 0
279 -143 0
279 -271 0
-280 144 272 0
280 -144 0
280 -272 0
-279 -151 0
-280 -152 0
-287 151 279 0
287 -151 0
287 -279 0
-288 152 280 0
288 -152 0
288 -280 0
-287 -159 0
-288 -160 0
-295 159 287 0
295 -159 0
295 -287 0
-296 160 288 0
296 -160 0
296 -288 0
-295 -167 0
-296 -168 0
-303 167 295 0
303 -167 0
303 -295 0
-304 168 296 0
304 -168 0
304 -296 0
-303 -175 0
-304 -176 0
-311 175 303 0
311 -175 0
311 -303 0
-312 176 304 0
312 -176 0
312 -304 0
-311 -183 0
-312 -184 0
-319 183 311 0
319 -183 0
319 -311 0
-320 184 312 0
320 -184 0
320 -312 0
-319 -191 0
-320 -192 0
319 0
320 0
